
Gurobi 13.0.2 (win64) logging started Thu Jul 23 14:24:33 2026

Set parameter LogFile to value "E:\codes\ExactEBRP\results\gf_gurobi_performance_recovery_round29\runs\stage1__moderate_seed3302__c4_candidate__300s\external\native_logs\L0.1.0.0.1.1.1.0.0_terminal_mip.gurobi.log"
Gurobi Optimizer version 13.0.2 build v13.0.2rc1 (win64 - Windows 10.0 (19045.2))

CPU model: 12th Gen Intel(R) Core(TM) i7-12700KF, instruction set [SSE2|AVX|AVX2]
Thread count: 12 physical cores, 20 logical processors, using up to 1 threads

Non-default parameters:
TimeLimit  223.754816
MIPGap  0
MIPGapAbs  0
LogToConsole  0
Threads  1

Optimize a model with 11903 rows, 3374 columns and 67328 nonzeros (Min)
Model fingerprint: 0x841b04c8
Model has 21 linear objective coefficients
Variable types: 1684 continuous, 1690 integer (1490 binary)
Coefficient statistics:
  Matrix range     [7e-03, 1e+04]
  Objective range  [7e-03, 1e+00]
  Bounds range     [3e-02, 3e+02]
  RHS range        [3e-02, 5e+04]

Presolve removed 853 rows and 77 columns
Presolve time: 0.19s
Presolved: 11050 rows, 3297 columns, 70200 nonzeros
Variable types: 1633 continuous, 1664 integer (1473 binary)

Root relaxation: objective 1.394467e-01, 3683 iterations, 0.24 seconds (0.59 work units)

    Nodes    |    Current Node    |     Objective Bounds      |     Work
 Expl Unexpl |  Obj  Depth IntInf | Incumbent    BestBd   Gap | It/Node Time

     0     0    0.13945    0  210          -    0.13945      -     -    0s
     0     0    0.13945    0  256          -    0.13945      -     -    0s
     0     0    0.15231    0  317          -    0.15231      -     -    2s
     0     0    0.15243    0  295          -    0.15243      -     -    2s
     0     0    0.15490    0  305          -    0.15490      -     -    2s
     0     0    0.15501    0  310          -    0.15501      -     -    2s
     0     0    0.17854    0  329          -    0.17854      -     -    3s
     0     0    0.17876    0  351          -    0.17876      -     -    3s
     0     0    0.17991    0  337          -    0.17991      -     -    3s
     0     0    0.18414    0  360          -    0.18414      -     -    4s
     0     0    0.18445    0  349          -    0.18445      -     -    4s
     0     0    0.18679    0  295          -    0.18679      -     -    5s
     0     0    0.18708    0  351          -    0.18708      -     -    6s
     0     0    0.18843    0  340          -    0.18843      -     -    7s
     0     0    0.18861    0  351          -    0.18861      -     -    7s
     0     0    0.19234    0  360          -    0.19234      -     -    8s
     0     0    0.19234    0  358          -    0.19234      -     -    8s
     0     0    0.19326    0  373          -    0.19326      -     -    8s
     0     0 infeasible    0               - infeasible      -     -    9s

Cutting planes:
  Learned: 15
  Cover: 40
  Implied bound: 110
  Clique: 14
  MIR: 404
  StrongCG: 3
  Flow cover: 133
  GUB cover: 2
  Network: 40
  RLT: 9
  Relax-and-lift: 83
  BQP: 9

Explored 1 nodes (36477 simplex iterations) in 9.52 seconds (17.99 work units)
Thread count was 1 (of 20 available processors)

Solution count 0

Model is infeasible
Best objective -, best bound -, gap -

User-callback calls 2840, time in user-callback 0.00 sec
